unsat
(:max-memory         18.42
 :memory             18.33
 :nlsat-arith-var    3
 :nlsat-atoms        19
 :nlsat-bool-var     3
 :nlsat-clauses      9
 :nlsat-conflicts    9
 :nlsat-propagations 34
 :nlsat-stages       9
 :num-allocs         51258
 :rlimit-count       2649
 :time               0.00
 :total-time         0.01)
